c "989436.clq"
p edge 100 1344
e 1 17
e 1 18
e 1 19
e 1 20
e 1 21
e 1 22
e 1 23
e 1 24
e 1 27
e 1 30
e 1 31
e 1 33
e 1 36
e 1 48
e 1 58
e 1 63
e 1 73
e 1 75
e 1 83
e 1 85
e 1 86
e 1 90
e 1 94
e 1 98
e 2 17
e 2 18
e 2 19
e 2 20
e 2 21
e 2 23
e 2 24
e 2 26
e 2 27
e 2 35
e 2 38
e 2 39
e 2 41
e 2 44
e 2 46
e 2 47
e 2 53
e 2 56
e 2 60
e 2 68
e 2 76
e 2 88
e 2 97
e 3 17
e 3 18
e 3 19
e 3 20
e 3 21
e 3 22
e 3 23
e 3 24
e 3 29
e 3 35
e 3 36
e 3 38
e 3 39
e 3 40
e 3 42
e 3 47
e 3 48
e 3 50
e 3 53
e 3 54
e 3 62
e 3 65
e 3 74
e 3 80
e 3 82
e 3 87
e 3 92
e 3 95
e 4 17
e 4 18
e 4 19
e 4 21
e 4 22
e 4 23
e 4 25
e 4 26
e 4 28
e 4 31
e 4 33
e 4 36
e 4 43
e 4 45
e 4 52
e 4 54
e 4 55
e 4 65
e 4 66
e 4 70
e 4 74
e 4 76
e 4 80
e 4 85
e 4 100
e 5 17
e 5 18
e 5 19
e 5 20
e 5 21
e 5 22
e 5 23
e 5 25
e 5 26
e 5 27
e 5 28
e 5 30
e 5 33
e 5 39
e 5 43
e 5 45
e 5 46
e 5 52
e 5 53
e 5 57
e 5 68
e 5 69
e 5 70
e 5 79
e 5 81
e 5 88
e 5 90
e 5 92
e 5 94
e 5 95
e 5 96
e 5 97
e 5 99
e 6 17
e 6 18
e 6 19
e 6 20
e 6 21
e 6 24
e 6 25
e 6 26
e 6 27
e 6 28
e 6 29
e 6 30
e 6 32
e 6 35
e 6 42
e 6 43
e 6 45
e 6 46
e 6 48
e 6 52
e 6 53
e 6 54
e 6 56
e 6 63
e 6 64
e 6 65
e 6 66
e 6 67
e 6 68
e 6 74
e 6 84
e 6 87
e 6 97
e 6 100
e 7 17
e 7 18
e 7 19
e 7 20
e 7 21
e 7 22
e 7 25
e 7 26
e 7 28
e 7 29
e 7 31
e 7 33
e 7 37
e 7 38
e 7 39
e 7 48
e 7 52
e 7 54
e 7 55
e 7 56
e 7 60
e 7 65
e 7 71
e 7 72
e 7 73
e 7 80
e 7 86
e 7 90
e 7 100
e 8 17
e 8 18
e 8 19
e 8 20
e 8 21
e 8 22
e 8 25
e 8 26
e 8 27
e 8 28
e 8 29
e 8 30
e 8 31
e 8 32
e 8 34
e 8 36
e 8 37
e 8 43
e 8 45
e 8 46
e 8 48
e 8 50
e 8 52
e 8 55
e 8 60
e 8 66
e 8 73
e 8 75
e 8 77
e 8 81
e 8 87
e 8 93
e 8 94
e 8 96
e 8 98
e 9 17
e 9 18
e 9 19
e 9 20
e 9 22
e 9 23
e 9 24
e 9 26
e 9 29
e 9 30
e 9 34
e 9 37
e 9 46
e 9 49
e 9 52
e 9 66
e 10 17
e 10 18
e 10 19
e 10 20
e 10 21
e 10 24
e 10 31
e 10 32
e 10 33
e 10 37
e 10 41
e 10 50
e 10 52
e 10 54
e 10 55
e 10 59
e 10 62
e 10 63
e 10 73
e 10 78
e 10 85
e 10 92
e 11 17
e 11 18
e 11 24
e 11 35
e 12 17
e 12 18
e 12 19
e 12 20
e 12 21
e 12 22
e 12 24
e 12 25
e 12 27
e 12 41
e 12 51
e 12 59
e 12 63
e 12 64
e 12 66
e 12 68
e 12 69
e 12 76
e 12 77
e 12 87
e 12 91
e 13 17
e 13 18
e 13 20
e 13 21
e 13 22
e 13 23
e 13 25
e 13 28
e 13 29
e 13 30
e 13 31
e 13 40
e 13 41
e 13 43
e 13 44
e 13 57
e 13 64
e 13 80
e 13 83
e 13 94
e 14 17
e 14 19
e 14 22
e 14 23
e 14 26
e 14 35
e 14 48
e 14 62
e 14 75
e 15 17
e 15 18
e 15 19
e 15 20
e 15 21
e 15 22
e 15 23
e 15 24
e 15 25
e 15 26
e 15 29
e 15 30
e 15 31
e 15 34
e 15 38
e 15 49
e 15 51
e 15 52
e 15 58
e 15 63
e 15 64
e 15 72
e 15 78
e 15 87
e 15 93
e 16 17
e 16 18
e 16 19
e 16 20
e 16 23
e 16 24
e 16 25
e 16 28
e 16 33
e 16 36
e 16 38
e 16 40
e 16 59
e 16 72
e 16 98
e 16 100
e 17 18
e 17 19
e 17 20
e 17 21
e 17 22
e 17 23
e 17 24
e 17 25
e 17 26
e 17 27
e 17 28
e 17 29
e 17 30
e 17 31
e 17 32
e 17 34
e 17 35
e 17 36
e 17 37
e 17 40
e 17 42
e 17 45
e 17 46
e 17 49
e 17 50
e 17 55
e 17 56
e 17 58
e 17 59
e 17 60
e 17 62
e 17 65
e 17 66
e 17 67
e 17 70
e 17 73
e 17 75
e 17 76
e 17 78
e 17 80
e 17 84
e 17 89
e 17 90
e 17 92
e 17 93
e 17 95
e 18 19
e 18 20
e 18 21
e 18 22
e 18 23
e 18 24
e 18 25
e 18 26
e 18 27
e 18 31
e 18 32
e 18 34
e 18 35
e 18 37
e 18 38
e 18 39
e 18 40
e 18 43
e 18 44
e 18 45
e 18 47
e 18 48
e 18 50
e 18 51
e 18 53
e 18 56
e 18 57
e 18 60
e 18 61
e 18 64
e 18 65
e 18 69
e 18 70
e 18 71
e 18 72
e 18 74
e 18 76
e 18 78
e 18 79
e 18 84
e 18 86
e 18 88
e 18 90
e 18 91
e 18 92
e 18 95
e 18 96
e 18 99
e 19 20
e 19 21
e 19 22
e 19 23
e 19 24
e 19 25
e 19 26
e 19 27
e 19 28
e 19 29
e 19 30
e 19 32
e 19 34
e 19 36
e 19 37
e 19 38
e 19 40
e 19 41
e 19 42
e 19 46
e 19 47
e 19 49
e 19 50
e 19 51
e 19 52
e 19 56
e 19 61
e 19 64
e 19 73
e 19 75
e 19 77
e 19 79
e 19 81
e 19 82
e 19 94
e 19 95
e 19 96
e 19 99
e 20 21
e 20 22
e 20 23
e 20 24
e 20 25
e 20 26
e 20 27
e 20 28
e 20 29
e 20 31
e 20 33
e 20 34
e 20 35
e 20 37
e 20 39
e 20 40
e 20 41
e 20 42
e 20 43
e 20 44
e 20 45
e 20 49
e 20 50
e 20 53
e 20 55
e 20 56
e 20 57
e 20 59
e 20 60
e 20 67
e 20 68
e 20 69
e 20 72
e 20 74
e 20 75
e 20 77
e 20 80
e 20 82
e 20 83
e 20 84
e 20 85
e 20 86
e 20 89
e 20 92
e 20 93
e 20 95
e 20 98
e 21 22
e 21 23
e 21 25
e 21 27
e 21 28
e 21 29
e 21 32
e 21 33
e 21 34
e 21 35
e 21 36
e 21 37
e 21 38
e 21 40
e 21 42
e 21 43
e 21 48
e 21 51
e 21 53
e 21 54
e 21 55
e 21 58
e 21 59
e 21 60
e 21 63
e 21 66
e 21 67
e 21 69
e 21 71
e 21 76
e 21 79
e 21 83
e 21 84
e 21 88
e 21 90
e 21 91
e 21 94
e 21 96
e 21 97
e 22 23
e 22 24
e 22 25
e 22 26
e 22 27
e 22 32
e 22 33
e 22 34
e 22 35
e 22 36
e 22 37
e 22 39
e 22 42
e 22 46
e 22 49
e 22 52
e 22 54
e 22 62
e 22 66
e 22 67
e 22 69
e 22 70
e 22 71
e 22 74
e 22 75
e 22 76
e 22 77
e 22 80
e 22 83
e 22 88
e 22 90
e 23 24
e 23 25
e 23 26
e 23 27
e 23 28
e 23 30
e 23 31
e 23 32
e 23 33
e 23 34
e 23 36
e 23 37
e 23 39
e 23 41
e 23 44
e 23 46
e 23 49
e 23 57
e 23 58
e 23 59
e 23 63
e 23 64
e 23 65
e 23 69
e 23 70
e 23 75
e 23 78
e 23 79
e 23 81
e 23 85
e 23 90
e 23 98
e 23 99
e 24 26
e 24 27
e 24 28
e 24 29
e 24 30
e 24 31
e 24 32
e 24 33
e 24 34
e 24 36
e 24 38
e 24 39
e 24 41
e 24 42
e 24 45
e 24 49
e 24 50
e 24 51
e 24 52
e 24 54
e 24 59
e 24 61
e 24 63
e 24 65
e 24 71
e 24 74
e 24 78
e 24 80
e 24 85
e 24 86
e 24 92
e 24 96
e 24 97
e 25 27
e 25 28
e 25 29
e 25 30
e 25 31
e 25 32
e 25 34
e 25 35
e 25 36
e 25 37
e 25 38
e 25 42
e 25 43
e 25 44
e 25 45
e 25 47
e 25 50
e 25 51
e 25 55
e 25 58
e 25 60
e 25 61
e 25 64
e 25 65
e 25 66
e 25 68
e 25 69
e 25 81
e 25 84
e 25 85
e 25 87
e 25 90
e 26 27
e 26 28
e 26 29
e 26 30
e 26 32
e 26 33
e 26 36
e 26 40
e 26 41
e 26 45
e 26 48
e 26 50
e 26 51
e 26 52
e 26 54
e 26 58
e 26 59
e 26 60
e 26 64
e 26 66
e 26 68
e 26 75
e 26 78
e 26 81
e 26 84
e 26 85
e 26 86
e 26 87
e 26 92
e 26 94
e 27 28
e 27 29
e 27 30
e 27 31
e 27 32
e 27 33
e 27 34
e 27 35
e 27 37
e 27 38
e 27 39
e 27 41
e 27 44
e 27 45
e 27 46
e 27 47
e 27 48
e 27 50
e 27 56
e 27 58
e 27 61
e 27 62
e 27 65
e 27 68
e 27 71
e 27 75
e 27 78
e 27 79
e 27 82
e 27 83
e 27 86
e 27 89
e 27 96
e 28 29
e 28 30
e 28 31
e 28 32
e 28 33
e 28 35
e 28 36
e 28 38
e 28 39
e 28 40
e 28 41
e 28 43
e 28 44
e 28 46
e 28 49
e 28 50
e 28 56
e 28 57
e 28 59
e 28 61
e 28 70
e 28 72
e 28 73
e 28 74
e 28 78
e 28 81
e 28 82
e 28 83
e 28 84
e 28 87
e 28 92
e 28 95
e 28 96
e 28 97
e 29 30
e 29 31
e 29 32
e 29 33
e 29 35
e 29 37
e 29 39
e 29 40
e 29 42
e 29 43
e 29 44
e 29 46
e 29 47
e 29 48
e 29 50
e 29 51
e 29 53
e 29 59
e 29 60
e 29 61
e 29 62
e 29 64
e 29 65
e 29 68
e 29 72
e 29 73
e 29 76
e 29 82
e 29 86
e 29 87
e 29 90
e 29 91
e 29 93
e 30 32
e 30 36
e 30 39
e 30 40
e 30 42
e 30 43
e 30 49
e 30 53
e 30 55
e 30 57
e 30 59
e 30 67
e 30 72
e 30 73
e 30 74
e 30 78
e 30 85
e 30 92
e 30 97
e 30 98
e 31 33
e 31 34
e 31 35
e 31 38
e 31 39
e 31 41
e 31 44
e 31 47
e 31 51
e 31 55
e 31 57
e 31 58
e 31 63
e 31 78
e 31 81
e 31 89
e 31 94
e 31 96
e 32 34
e 32 37
e 32 38
e 32 39
e 32 41
e 32 42
e 32 43
e 32 45
e 32 46
e 32 47
e 32 49
e 32 50
e 32 51
e 32 54
e 32 55
e 32 58
e 32 59
e 32 61
e 32 63
e 32 64
e 32 67
e 32 69
e 32 76
e 32 78
e 32 82
e 32 87
e 32 91
e 32 95
e 32 99
e 33 34
e 33 36
e 33 38
e 33 40
e 33 42
e 33 44
e 33 50
e 33 51
e 33 53
e 33 56
e 33 57
e 33 58
e 33 62
e 33 68
e 33 72
e 33 73
e 33 77
e 33 79
e 33 89
e 33 98
e 34 35
e 34 38
e 34 40
e 34 44
e 34 46
e 34 47
e 34 48
e 34 55
e 34 61
e 34 63
e 34 77
e 34 80
e 34 93
e 34 96
e 34 100
e 35 37
e 35 44
e 35 48
e 35 54
e 35 55
e 35 57
e 35 64
e 35 67
e 35 99
e 35 100
e 36 41
e 36 45
e 36 47
e 36 49
e 36 51
e 36 54
e 36 56
e 36 59
e 36 61
e 36 65
e 36 70
e 36 72
e 36 76
e 36 79
e 36 81
e 36 88
e 36 95
e 36 96
e 36 98
e 36 99
e 36 100
e 37 39
e 37 40
e 37 45
e 37 49
e 37 52
e 37 53
e 37 54
e 37 77
e 37 80
e 37 92
e 37 94
e 38 41
e 38 42
e 38 43
e 38 44
e 38 46
e 38 48
e 38 53
e 38 57
e 38 58
e 38 60
e 38 61
e 38 64
e 38 72
e 38 74
e 38 77
e 38 78
e 38 82
e 38 84
e 38 98
e 39 40
e 39 41
e 39 44
e 39 45
e 39 47
e 39 53
e 39 54
e 39 56
e 39 62
e 39 64
e 39 73
e 39 74
e 39 81
e 39 85
e 39 91
e 39 98
e 39 100
e 40 42
e 40 43
e 40 54
e 40 69
e 40 71
e 40 79
e 40 83
e 40 91
e 40 93
e 40 94
e 41 42
e 41 43
e 41 44
e 41 47
e 41 53
e 41 61
e 41 62
e 41 66
e 41 68
e 41 72
e 41 76
e 41 77
e 41 84
e 41 85
e 41 86
e 41 88
e 41 89
e 42 49
e 42 56
e 42 75
e 43 45
e 43 46
e 43 47
e 43 48
e 43 53
e 43 54
e 43 57
e 43 65
e 43 69
e 43 73
e 43 75
e 43 77
e 43 84
e 43 88
e 43 91
e 43 98
e 44 47
e 44 49
e 44 52
e 44 58
e 44 59
e 44 62
e 44 66
e 44 76
e 44 85
e 44 90
e 44 91
e 44 93
e 44 100
e 45 47
e 45 51
e 45 55
e 45 57
e 45 62
e 45 63
e 45 67
e 45 68
e 45 70
e 45 71
e 45 79
e 45 81
e 45 83
e 45 86
e 45 90
e 45 95
e 46 52
e 46 60
e 46 63
e 46 67
e 46 68
e 46 69
e 46 82
e 46 84
e 46 88
e 46 94
e 46 96
e 47 48
e 47 51
e 47 55
e 47 56
e 47 58
e 47 59
e 47 63
e 47 68
e 47 77
e 47 82
e 47 91
e 48 49
e 48 52
e 48 58
e 48 61
e 48 62
e 48 64
e 48 66
e 48 67
e 48 74
e 48 86
e 48 92
e 48 93
e 48 95
e 49 50
e 49 51
e 49 55
e 49 57
e 49 60
e 49 65
e 49 69
e 49 74
e 49 78
e 49 80
e 49 81
e 49 82
e 49 83
e 49 94
e 49 99
e 50 56
e 50 62
e 50 70
e 50 71
e 50 83
e 51 53
e 51 57
e 51 60
e 51 61
e 51 73
e 51 80
e 52 61
e 52 65
e 52 70
e 52 73
e 52 76
e 52 77
e 52 78
e 52 84
e 52 85
e 52 89
e 52 90
e 52 99
e 53 60
e 53 63
e 53 64
e 53 67
e 53 68
e 53 79
e 53 81
e 53 83
e 53 88
e 53 89
e 53 91
e 53 93
e 53 97
e 53 99
e 53 100
e 54 57
e 54 61
e 54 71
e 54 75
e 54 79
e 54 82
e 54 89
e 54 93
e 54 98
e 54 99
e 55 56
e 55 58
e 55 88
e 56 63
e 56 65
e 56 67
e 56 73
e 56 86
e 56 89
e 57 60
e 57 68
e 57 71
e 57 74
e 57 79
e 57 87
e 58 62
e 58 66
e 58 78
e 58 98
e 59 71
e 59 77
e 59 79
e 59 97
e 59 98
e 60 62
e 60 67
e 60 72
e 60 74
e 60 77
e 60 82
e 60 95
e 60 99
e 61 66
e 61 70
e 61 71
e 61 72
e 61 75
e 61 83
e 61 91
e 62 67
e 62 70
e 62 71
e 62 91
e 62 100
e 63 69
e 63 71
e 63 79
e 63 81
e 63 83
e 63 89
e 63 90
e 63 91
e 64 66
e 64 70
e 64 73
e 64 75
e 64 76
e 64 82
e 64 92
e 64 96
e 65 70
e 65 71
e 65 72
e 65 76
e 65 87
e 65 88
e 65 89
e 65 94
e 65 99
e 66 67
e 66 75
e 66 77
e 66 81
e 66 83
e 66 84
e 66 85
e 66 87
e 66 89
e 66 90
e 66 93
e 66 97
e 67 69
e 67 74
e 67 76
e 67 93
e 67 100
e 68 69
e 68 70
e 68 84
e 69 80
e 69 83
e 69 84
e 69 88
e 69 89
e 69 97
e 69 98
e 70 88
e 70 90
e 70 91
e 70 92
e 70 97
e 71 72
e 71 80
e 71 87
e 71 97
e 72 79
e 72 80
e 72 98
e 73 85
e 73 93
e 74 86
e 74 87
e 74 93
e 76 80
e 76 82
e 76 87
e 76 96
e 76 100
e 77 85
e 79 86
e 79 93
e 80 81
e 80 82
e 80 89
e 80 95
e 80 96
e 81 86
e 81 92
e 81 95
e 82 86
e 82 88
e 82 91
e 82 94
e 82 100
e 83 95
e 84 94
e 84 100
e 86 88
e 86 97
e 87 97
e 88 89
e 89 95
e 90 94
e 90 96
e 91 92
e 92 99
e 93 97
e 93 99
e 93 100
e 97 99
